1 10 30
4386
  4.4  1.34  47.3 53574.0   0.0
 0.90 3571.6 298.5
 1.79 7136.5 596.5
 0.88 3510.3 293.4
 1.46 5820.7 486.5
 1.48 5882.8 491.7
 2.05 8164.8 682.4
 2.20 8789.1 734.6
 2.13 8507.1 711.0
 1.96 7810.6 652.8
 0.75 3005.0 251.2
 1470
 1313
 1042
 1350
 1066
  784
  732
  800
 1364
  542
 1099
 1407
  780
  800
  809
  944
  864
 1056
  743
  542
 1433
 1086
  697
 1103
  761
  882
  960
 1236
  929
  878
